============================[ Problem Statistics ]=============================|                                                                             ||  Number of variables:          4242                                         ||  Number of clauses:            9677                                         ||  Parse time:                   0.09 s                                       ||                                                                             |============================[ Search Statistics ]==============================| Conflicts |          ORIGINAL         |          LEARNT          | Progress ||           |    Vars  Clauses Literals |    Limit  Clauses Lit/Cl |          |==============================================================================================================================================================restarts              : 1conflicts             : 51             (383 /sec)decisions             : 137            (0.00 % random) (1030 /sec)propagations          : 8126           (61098 /sec)conflict literals     : 2238           (95.86 % deleted)CPU time              : 0.133 sSATISFIABLE